; benchmark generated from python API
(set-info :status unknown)
(declare-datatypes ((RealState 0)) (((RMk1 (rval1 Real)) (RMk2 (rval2 Real)))))
 (assert
 (forall ((|v11:0| Real) )(exists ((|v10:1_st| RealState) (val!2616 Real) )(forall ((|v9:2| Real) )(exists ((|v8:3_st| RealState) (val!2617 Real) )(forall ((|v7:4| Real) )(exists ((|v6:5_st| RealState) (val!2618 Real) )(forall ((|v5:6| Real) )(exists ((|v4:7_st| RealState) (val!2619 Real) )(forall ((|v3:8| Real) )(exists ((|v2:9_st| RealState) (val!2620 Real) )(forall ((|v1:10| Real) )(exists ((|v0:11_st| RealState) (val!2621 Real) )(let ((?x152 (* 19.0 |v5:6|)))
 (let ((?x2610 (+ (+ (+ (* 13.0 (rval2 |v0:11_st|)) (* (- 15.0) |v9:2|)) (* 11.0 |v1:10|)) ?x152)))
 (let ((?x1574 (+ (+ (+ (* 4.0 (rval2 |v8:3_st|)) (* (- 19.0) |v5:6|)) |v5:6|) (* (- 2.0) |v3:8|))))
 (let ((?x2509 (rval2 |v6:5_st|)))
 (let ((?x2905 (- 15.0)))
 (let ((?x264 (* ?x2905 ?x2509)))
 (let ((?x281 (+ (+ (+ (* (- 14.0) (rval2 |v2:9_st|)) (* 12.0 |v9:2|)) (* 20.0 |v11:0|)) ?x264)))
 (let ((?x1909 (* 8.0 |v11:0|)))
 (let ((?x484 (- 4.0)))
 (let ((?x1505 (* ?x484 |v11:0|)))
 (let (($x392 (<= (+ (+ (+ (* 12.0 (rval2 |v0:11_st|)) (* (- 8.0) ?x2509)) ?x1505) ?x1909) 11.0)))
 (let (($x1742 (and (or $x392 (<= ?x281 1.0)) (and (<= ?x1574 12.0) (<= ?x2610 6.0)))))
 (let ((?x271 (- 20.0)))
 (let ((?x325 (- 9.0)))
 (let ((?x2193 (* ?x325 |v7:4|)))
 (let ((?x2225 (+ (+ (* 3.0 (rval2 |v0:11_st|)) (* (- 11.0) (rval2 |v10:1_st|))) (* (- 10.0) (rval2 |v8:3_st|)))))
 (let ((?x2964 (* 3.0 ?x2509)))
 (let (($x2325 (<= (+ (+ (+ (* ?x2905 |v9:2|) (* 12.0 |v9:2|)) (* (- 8.0) |v11:0|)) ?x2964) 19.0)))
 (let ((?x1784 (- 3.0)))
 (let ((?x1787 (* ?x1784 |v1:10|)))
 (let ((?x2356 (rval2 |v2:9_st|)))
 (let ((?x2426 (* 12.0 ?x2356)))
 (let (($x234 (<= (+ (+ (+ (* 15.0 (rval2 |v8:3_st|)) (* 5.0 |v3:8|)) ?x2426) ?x1787) 13.0)))
 (let ((?x2449 (+ (+ (+ (* 2.0 |v1:10|) (* ?x484 (rval2 |v0:11_st|))) (* (- 18.0) |v5:6|)) (* ?x325 ?x2509))))
 (let (($x217 (and (or (and (<= ?x2449 ?x2905) $x234) (and $x2325 (<= (+ ?x2225 ?x2193) ?x271))) $x1742)))
 (let ((?x581 (rval2 |v8:3_st|)))
 (let ((?x2086 (* 17.0 ?x581)))
 (let ((?x1411 (+ (+ (+ (* 9.0 |v5:6|) (* (- 2.0) (rval2 |v4:7_st|))) (* 2.0 |v9:2|)) ?x2086)))
 (let ((?x1555 (- 16.0)))
 (let (($x2561 (or (<= (+ (+ (+ (* 17.0 |v7:4|) (* 7.0 ?x2356)) ?x2086) ?x581) ?x1555) (<= ?x1411 17.0))))
 (let (($x958 (<= (+ (+ (+ (* 12.0 |v1:10|) (* (- 1.0) |v1:10|)) ?x1909) (* ?x271 |v1:10|)) 7.0)))
 (let ((?x953 (rval2 |v4:7_st|)))
 (let ((?x1765 (* 11.0 ?x953)))
 (let ((?x2680 (+ (+ (* (- 1.0) (rval2 |v10:1_st|)) (* (- 18.0) |v7:4|)) (* 0.0 |v1:10|))))
 (let ((?x3022 (+ (+ (* (- 8.0) (rval2 |v0:11_st|)) (* (- 7.0) ?x581)) (* 0.0 |v9:2|))))
 (let ((?x453 (+ (+ (+ (* 0.0 ?x2509) (* (- 11.0) |v7:4|)) (* (- 11.0) |v1:10|)) (* (- 19.0) ?x2509))))
 (let ((?x472 (+ (+ (+ (* 12.0 ?x953) (* (- 1.0) |v3:8|)) (* 20.0 (rval2 |v0:11_st|))) ?x1505)))
 (let ((?x2538 (* 4.0 |v11:0|)))
 (let (($x2956 (<= (+ (+ (+ (* 14.0 ?x2356) (* ?x1555 |v9:2|)) (* 19.0 ?x2509)) ?x2538) 19.0)))
 (let (($x1473 (or (and $x2956 (<= ?x472 ?x2905)) (or (<= ?x453 4.0) (<= (+ ?x3022 (* 17.0 (rval2 |v0:11_st|))) 19.0)))))
 (let (($x155 (and (and $x1473 (or (and (<= (+ ?x2680 ?x1765) 1.0) $x958) $x2561)) $x217)))
 (let ((?x2205 (- 6.0)))
 (let ((?x1985 (rval2 |v0:11_st|)))
 (let ((?x782 (+ (+ (+ (* (- 12.0) ?x2356) (* 16.0 |v11:0|)) (* (- 2.0) ?x581)) ?x1985)))
 (let ((?x2848 (- 8.0)))
 (let ((?x2159 (* ?x2848 |v7:4|)))
 (let ((?x1345 (+ (+ (+ (* 3.0 ?x953) (* (- 10.0) |v1:10|)) (* 15.0 |v1:10|)) ?x2159)))
 (let (($x2039 (<= (+ (+ (+ (* (- 7.0) ?x953) (* 7.0 ?x953)) (* ?x2205 ?x581)) |v9:2|) 5.0)))
 (let ((?x2986 (+ (+ (+ (* 3.0 |v9:2|) (* ?x2205 |v1:10|)) (* (- 11.0) (rval2 |v10:1_st|))) ?x264)))
 (let ((?x2882 (* ?x2205 ?x2509)))
 (let (($x757 (<= (+ (+ (+ (* ?x2848 ?x2509) (* 10.0 ?x953)) (* ?x484 |v3:8|)) ?x2882) 7.0)))
 (let ((?x2499 (* ?x1555 ?x1985)))
 (let ((?x1905 (+ (+ (+ (* 16.0 ?x2509) (* 9.0 |v9:2|)) (* (- 12.0) |v11:0|)) ?x2499)))
 (let (($x1837 (<= (+ (+ (+ (* ?x2848 |v5:6|) (* 6.0 |v7:4|)) ?x152) (* (- 17.0) |v11:0|)) 14.0)))
 (let (($x274 (and (or $x1837 (or (<= ?x1905 16.0) $x757)) (or (or (<= ?x2986 8.0) $x2039) (or (<= ?x1345 ?x1784) (<= ?x782 ?x2205))))))
 (let ((?x347 (- 7.0)))
 (let (($x1747 (<= (+ (+ (+ (* (- 11.0) |v5:6|) ?x1787) (* ?x325 ?x2356)) (* 3.0 ?x1985)) ?x347)))
 (let ((?x37 (+ (+ (+ (* (- 18.0) (rval2 |v10:1_st|)) (* ?x1784 ?x953)) (* ?x2205 |v3:8|)) (* (- 5.0) |v3:8|))))
 (let (($x1417 (<= (+ (+ (+ (* 2.0 |v1:10|) (* 16.0 ?x2356)) (* 20.0 ?x581)) |v1:10|) 1.0)))
 (let ((?x1782 (- 12.0)))
 (let ((?x818 (+ (+ (+ (* ?x271 |v9:2|) (* 18.0 ?x581)) (* 10.0 |v1:10|)) (* 6.0 ?x581))))
 (let ((?x710 (- 11.0)))
 (let (($x1542 (<= (+ (+ (+ |v1:10| (* 4.0 ?x581)) (* 5.0 ?x953)) (* 19.0 |v7:4|)) ?x710)))
 (let (($x2420 (<= (+ (+ (+ (* ?x325 |v1:10|) ?x2538) (* ?x325 ?x953)) (* 0.0 |v3:8|)) 18.0)))
 (let (($x360 (<= (+ (+ (+ ?x2538 (* 20.0 ?x2356)) (* (- 13.0) |v1:10|)) (* ?x271 |v7:4|)) 4.0)))
 (let (($x2503 (and (or (and $x360 $x2420) (or $x1542 (<= ?x818 ?x1782))) (or (or $x1417 (<= ?x37 6.0)) $x1747))))
 (let ((?x810 (+ (+ (+ (* 4.0 ?x2509) (* ?x2905 ?x581)) (* (- 10.0) |v1:10|)) (* ?x710 |v11:0|))))
 (let ((?x2515 (* 13.0 ?x1985)))
 (let ((?x894 (+ (+ (+ (* (- 17.0) (rval2 |v10:1_st|)) (* ?x710 |v3:8|)) (* 6.0 |v5:6|)) ?x2515)))
 (let ((?x651 (* 13.0 ?x2356)))
 (let (($x328 (<= (+ (+ (+ |v9:2| (* 18.0 |v11:0|)) (* ?x347 (rval2 |v10:1_st|))) ?x651) 13.0)))
 (let ((?x1920 (+ (+ (+ ?x2499 (* (- 17.0) |v7:4|)) (* 20.0 ?x953)) (* (- 5.0) ?x2509))))
 (let (($x470 (or (and (<= ?x1920 9.0) $x328) (or (<= ?x894 0.0) (<= ?x810 9.0)))))
 (let ((?x1155 (* 5.0 ?x2509)))
 (let (($x1180 (<= (+ (+ (+ (* 16.0 |v1:10|) (* 16.0 |v3:8|)) (* 15.0 |v9:2|)) ?x1155) ?x2905)))
 (let ((?x991 (- 13.0)))
 (let ((?x750 (* ?x991 ?x1985)))
 (let (($x1390 (<= (+ (+ (+ (* ?x347 ?x1985) (* 13.0 |v1:10|)) (* 7.0 |v5:6|)) ?x750) 3.0)))
 (let ((?x3105 (+ (+ (+ (* (- 14.0) |v5:6|) (* 17.0 |v9:2|)) (* (- 17.0) ?x1985)) (* (- 2.0) (rval2 |v10:1_st|)))))
 (let ((?x2384 (+ (+ (+ (* (- 17.0) ?x581) (* ?x484 ?x1985)) (* 13.0 ?x581)) (* 18.0 ?x1985))))
 (let (($x2850 (or (and (and (<= ?x2384 18.0) (<= ?x3105 ?x2205)) (or $x1390 $x1180)) $x470)))
 (let ((?x1845 (- 14.0)))
 (let ((?x2393 (* ?x347 ?x1985)))
 (let (($x509 (<= (+ (+ (+ (* 8.0 ?x2356) (* 3.0 ?x581)) (* 7.0 ?x2509)) ?x2393) ?x1845)))
 (let ((?x979 (+ (+ (+ (* ?x2905 ?x1985) (* 16.0 |v5:6|)) (* (- 18.0) |v1:10|)) (* ?x271 ?x953))))
 (let ((?x829 (+ (+ (+ (* 4.0 ?x2356) (* ?x2905 (rval2 |v10:1_st|))) (* (- 10.0) ?x953)) (* 0.0 ?x1985))))
 (let ((?x3047 (+ (+ (+ (* (- 1.0) ?x2356) (* ?x1784 ?x953)) (* 4.0 (rval2 |v10:1_st|))) (* 6.0 ?x2356))))
 (let ((?x1404 (- 2.0)))
 (let (($x1193 (<= (+ (+ (+ ?x2515 (* 13.0 (rval2 |v10:1_st|))) (* 13.0 |v1:10|)) ?x750) ?x1404)))
 (let (($x2239 (and (and $x1193 (<= ?x3047 0.0)) (and (<= ?x829 20.0) (<= ?x979 0.0)))))
 (let ((?x1684 (+ (+ (+ (* ?x1845 ?x1985) (* ?x325 ?x953)) (* 12.0 |v7:4|)) (* (- 18.0) ?x1985))))
 (let ((?x524 (* 10.0 |v3:8|)))
 (let (($x2642 (<= (+ (+ (+ (* ?x710 |v9:2|) (* (- 18.0) |v3:8|)) (* ?x347 |v7:4|)) ?x524) ?x1845)))
 (let ((?x380 (+ (+ (+ (* 5.0 |v11:0|) (* 7.0 |v3:8|)) (* (- 5.0) ?x581)) (* ?x1782 |v3:8|))))
 (let (($x700 (<= (+ (+ (+ (* ?x2848 |v11:0|) ?x2882) (* ?x325 (rval2 |v10:1_st|))) ?x2964) 1.0)))
 (let ((?x2318 (+ (+ (+ (* ?x1555 ?x2356) (* 2.0 ?x2356)) (* ?x347 |v7:4|)) (* (- 17.0) ?x2356))))
 (let (($x75 (and (<= ?x2318 6.0) (and (or $x700 (<= ?x380 5.0)) (and $x2642 (<= ?x1684 6.0))))))
 (let ((?x2668 (* ?x271 |v9:2|)))
 (let ((?x1088 (+ (+ (* (- 5.0) (rval2 |v10:1_st|)) (* (- 5.0) (rval2 |v10:1_st|))) (* 7.0 |v9:2|))))
 (let ((?x2238 (* 20.0 |v1:10|)))
 (let ((?x1330 (+ (+ (+ (* 2.0 |v1:10|) (* (- 18.0) |v3:8|)) (* ?x1782 (rval2 |v10:1_st|))) ?x2238)))
 (let ((?x1265 (- 5.0)))
 (let ((?x12 (+ (+ (+ (* (- 10.0) |v1:10|) (* ?x710 |v5:6|)) (* 9.0 ?x953)) (* ?x271 (rval2 |v10:1_st|)))))
 (let ((?x2686 (- 18.0)))
 (let ((?x3111 (* 14.0 |v5:6|)))
 (let ((?x2526 (+ (+ (+ (* (- 10.0) (rval2 |v10:1_st|)) (* 19.0 |v7:4|)) (* 18.0 ?x2509)) ?x3111)))
 (let (($x588 (or (or (<= ?x2526 ?x2686) (<= ?x12 ?x1265)) (or (<= ?x1330 5.0) (<= (+ ?x1088 ?x2668) 9.0)))))
 (let ((?x1614 (+ (+ (+ (* 11.0 ?x581) (* (- 1.0) ?x953)) (* 6.0 |v3:8|)) (* ?x325 |v11:0|))))
 (let ((?x1152 (rval2 |v10:1_st|)))
 (let ((?x751 (* 17.0 ?x1152)))
 (let (($x631 (<= (+ (+ (+ (* ?x2686 |v3:8|) (* ?x1782 ?x1152)) (* 5.0 |v11:0|)) ?x751) 10.0)))
 (let ((?x2672 (- 1.0)))
 (let ((?x1866 (* ?x2672 ?x2356)))
 (let ((?x2441 (* 20.0 |v11:0|)))
 (let (($x287 (<= (+ (+ (+ (* 4.0 ?x953) (* 10.0 |v5:6|)) (* 16.0 ?x953)) ?x2441) ?x271)))
 (let (($x3066 (or $x287 (<= (+ (+ (+ (* 10.0 |v7:4|) (* 18.0 |v9:2|)) ?x3111) ?x1866) ?x2848))))
 (let (($x13 (and (and (and (and $x3066 (or $x631 (<= ?x1614 20.0))) $x588) $x75) (and (or $x2239 $x509) $x2850))))
 (let (($x1423 (not (= |v0:11_st| (RMk1 val!2621)))))
 (let (($x937 (not (= |v2:9_st| (RMk1 val!2620)))))
 (let (($x1277 (not (= |v4:7_st| (RMk1 val!2619)))))
 (let (($x1151 (not (= |v6:5_st| (RMk1 val!2618)))))
 (let (($x1011 (not (= |v8:3_st| (RMk1 val!2617)))))
 (let (($x439 (not (= |v10:1_st| (RMk1 val!2616)))))
 (and $x439 $x1011 $x1151 $x1277 $x937 $x1423 (and $x13 (and (and $x2503 $x274) $x155)))))))))))))))))))))))))))))))))))))))))))))))))))))))))))))))))))))))))))))))))))))))))))))))))))))))))))))))))))))))))))))))
 )
 )
 )
 )
 )
 )
 )
 )
 )
 )
 )
 )
(check-sat)
